
%FILE DATA:	Soccer Computational Problem for MiniZinc Models	%
%AUTHOR:	Jack Wall	%
%CONTACT:  	116397063@umail.ucc.ie			%
%LAST UPDATE:	03/02/2020, 18:19:35						%
%DESCRIPTION: 	77 games played with 33 games left				%


n=11; %number of teams

%Games to play
games=[|7,3|9,2|8,1|4,11|3,4|4,6|4,3|2,6|9,7|8,11|3,9|5,10|2,10|5,1|7,11|9,6|8,4|9,1|1,4|10,1|3,1|10,6|5,9|10,11|7,9|8,3|5,2|6,10|5,6|3,10|1,3|5,3|1,10|];

%Initial points
iPoints=[17,21,22,17,26,14,13,34,17,12,17];

%POSITION CONSTRAINTS
% [|teamID, operator, position|...]
% operators index:
%  1 for =  operator
%  2 for >  operator
%  3 for >= operator
%  4 for <  operator
%  5 for <= operator
positionConstraints=[|8,3,1|5,2,1|4,2,2|3,2,3|];